(set-info :smt-lib-version 2.6)
(set-logic QF_NIA)
(set-info :source |AProve team, see http://aprove.informatik.rwth-aachen.de/, submitted for SMT-COMP 2014|)
(set-info :category "industrial")
(set-info :status unsat)
(declare-fun b__76 () Int)
(declare-fun a__2 () Int)
(declare-fun a__4 () Int)
(declare-fun a__6 () Int)
(declare-fun a__8 () Int)
(declare-fun a__10 () Int)
(declare-fun a__5 () Int)
(declare-fun a__11 () Int)
(declare-fun a__7 () Int)
(declare-fun a__12 () Int)
(declare-fun a__15 () Int)
(declare-fun a__13 () Int)
(declare-fun a__14 () Int)
(declare-fun a__16 () Int)
(declare-fun a__18 () Int)
(declare-fun a__17 () Int)
(declare-fun a__19 () Int)
(declare-fun a__20 () Int)
(declare-fun a__21 () Int)
(declare-fun a__22 () Int)
(declare-fun a__23 () Int)
(declare-fun a__24 () Int)
(declare-fun a__26 () Int)
(declare-fun a__28 () Int)
(declare-fun a__27 () Int)
(declare-fun a__25 () Int)
(declare-fun a__29 () Int)
(declare-fun a__30 () Int)
(declare-fun a__31 () Int)
(declare-fun a__33 () Int)
(declare-fun a__35 () Int)
(declare-fun a__34 () Int)
(declare-fun a__32 () Int)
(declare-fun a__36 () Int)
(declare-fun a__37 () Int)
(declare-fun a__38 () Int)
(declare-fun a__40 () Int)
(declare-fun a__41 () Int)
(declare-fun a__39 () Int)
(declare-fun a__42 () Int)
(declare-fun a__43 () Int)
(declare-fun a__46 () Int)
(declare-fun a__49 () Int)
(declare-fun a__47 () Int)
(declare-fun a__44 () Int)
(declare-fun a__48 () Int)
(declare-fun a__45 () Int)
(declare-fun a__50 () Int)
(declare-fun a__51 () Int)
(declare-fun a__53 () Int)
(declare-fun a__52 () Int)
(declare-fun a__54 () Int)
(declare-fun a__55 () Int)
(declare-fun a__56 () Int)
(declare-fun a__57 () Int)
(declare-fun a__58 () Int)
(declare-fun a__59 () Int)
(declare-fun a__63 () Int)
(declare-fun a__64 () Int)
(declare-fun a__60 () Int)
(declare-fun a__65 () Int)
(declare-fun a__61 () Int)
(declare-fun a__66 () Int)
(declare-fun a__62 () Int)
(declare-fun a__67 () Int)
(declare-fun a__68 () Int)
(declare-fun a__69 () Int)
(declare-fun a__70 () Int)
(declare-fun a__71 () Int)
(declare-fun a__72 () Int)
(declare-fun a__73 () Int)
(declare-fun a__75 () Int)
(declare-fun a__74 () Int)
(declare-fun a__9 () Int)
(declare-fun a__3 () Int)
(assert (and (>= (+ 1 (* (- 0 1) b__76)) 0) (= (+ (* b__76 a__2) (* (- 0 1) a__2)) 0) (>= (+ (* a__4 a__2) (* (- 0 1) (* a__6 a__2))) 0) (>= (+ (* a__8 a__2) (* (- 0 1) (* a__10 a__2))) 0) (>= (+ (* b__76 a__5) (* b__76 a__11 a__6) (* (- 0 1) (* b__76 a__7)) (* (- 0 1) (* b__76 a__12 a__8)) (* (- 0 1) (* b__76 a__15 a__13 a__8)) (* (- 0 1) (* b__76 a__11 a__14 a__8))) 0) (>= (+ (* b__76 a__5) (* b__76 a__16 a__6) (* b__76 a__18 a__17 a__6) (* (- 0 1) (* b__76 a__7)) (* (- 0 1) (* b__76 a__18 a__8))) 0) (>= (+ (* b__76 a__5) (* b__76 a__19 a__6) (* b__76 a__18 a__20 a__6) (* (- 0 1) (* b__76 a__7)) (* (- 0 1) (* b__76 a__18 a__8))) 0) (>= (+ (* b__76 a__5) (* b__76 a__21 a__6) (* b__76 a__18 a__22 a__6) (* (- 0 1) (* b__76 a__7)) (* (- 0 1) (* b__76 a__18 a__8))) 0) (>= (+ (* b__76 a__5) (* b__76 a__23 a__6) (* b__76 a__18 a__24 a__6) (* (- 0 1) (* b__76 a__7)) (* (- 0 1) (* b__76 a__26 a__8)) (* (- 0 1) (* b__76 a__28 a__27 a__8))) 0) (>= (+ (* b__76 a__25 a__6) (* (- 0 1) (* b__76 a__29 a__27 a__8))) 0) (>= (+ (* b__76 a__5) (* b__76 a__26 a__6) (* b__76 a__18 a__27 a__6) (* (- 0 1) (* b__76 a__7)) (* (- 0 1) (* b__76 a__18 a__8))) 0) (>= (+ (* b__76 a__5) (* b__76 a__30 a__6) (* b__76 a__18 a__31 a__6) (* (- 0 1) (* b__76 a__7)) (* (- 0 1) (* b__76 a__33 a__8)) (* (- 0 1) (* b__76 a__35 a__34 a__8))) 0) (>= (+ (* b__76 a__32 a__6) (* (- 0 1) (* b__76 a__36 a__34 a__8))) 0) (>= (+ (* b__76 a__5) (* b__76 a__33 a__6) (* b__76 a__18 a__34 a__6) (* (- 0 1) (* b__76 a__7)) (* (- 0 1) (* b__76 a__18 a__8))) 0) (>= (+ (* b__76 a__5) (* b__76 a__37 a__6) (* b__76 a__18 a__38 a__6) (* (- 0 1) (* b__76 a__7)) (* (- 0 1) (* b__76 a__40 a__8)) (* (- 0 1) (* b__76 a__28 a__41 a__8))) 0) (>= (+ (* b__76 a__39 a__6) (* (- 0 1) (* b__76 a__29 a__41 a__8))) 0) (>= (+ (* b__76 a__5) (* b__76 a__40 a__6) (* b__76 a__18 a__41 a__6) (* (- 0 1) (* b__76 a__7)) (* (- 0 1) (* b__76 a__18 a__8))) 0) (>= (+ (* b__76 a__5) (* b__76 a__42 a__6) (* b__76 a__18 a__43 a__6) (* (- 0 1) (* b__76 a__7)) (* (- 0 1) (* b__76 a__46 a__8)) (* (- 0 1) (* b__76 a__49 a__47 a__8))) 0) (>= (+ (* b__76 a__44 a__6) (* (- 0 1) (* b__76 a__48 a__8))) 0) (>= (+ (* b__76 a__45 a__6) (* (- 0 1) (* b__76 a__50 a__47 a__8))) 0) (>= (+ (* b__76 a__5) (* b__76 a__46 a__6) (* b__76 a__18 a__47 a__6) (* (- 0 1) (* b__76 a__7)) (* (- 0 1) (* b__76 a__51 a__8)) (* (- 0 1) (* b__76 a__53 a__52 a__8))) 0) (>= (+ (* b__76 a__48 a__6) (* (- 0 1) (* b__76 a__54 a__52 a__8))) 0) (>= (+ (* b__76 a__5) (* b__76 a__55 a__6) (* b__76 a__18 a__56 a__6) (* (- 0 1) (* b__76 a__7)) (* (- 0 1) (* b__76 a__57 a__8))) 0) (>= (+ (* b__76 a__5) (* b__76 a__58 a__6) (* b__76 a__18 a__59 a__6) (* (- 0 1) (* b__76 a__7)) (* (- 0 1) (* b__76 a__63 a__8)) (* (- 0 1) (* b__76 a__49 a__64 a__8))) 0) (>= (+ (* b__76 a__60 a__6) (* (- 0 1) (* b__76 a__65 a__8))) 0) (>= (+ (* b__76 a__61 a__6) (* (- 0 1) (* b__76 a__50 a__64 a__8)) (* (- 0 1) (* b__76 a__66 a__8))) 0) (>= (+ (* b__76 a__62 a__6) (* (- 0 1) (* b__76 a__67 a__8))) 0) (>= (+ (* b__76 a__5) (* b__76 a__63 a__6) (* b__76 a__18 a__64 a__6) (* (- 0 1) (* b__76 a__7)) (* (- 0 1) (* b__76 a__68 a__8)) (* (- 0 1) (* b__76 a__49 a__69 a__8))) 0) (>= (+ (* b__76 a__65 a__6) (* (- 0 1) (* b__76 a__70 a__8))) 0) (>= (+ (* b__76 a__66 a__6) (* (- 0 1) (* b__76 a__71 a__8))) 0) (>= (+ (* b__76 a__67 a__6) (* (- 0 1) (* b__76 a__50 a__69 a__8)) (* (- 0 1) (* b__76 a__72 a__8))) 0) (>= (+ (* b__76 a__5) (* b__76 a__68 a__6) (* b__76 a__18 a__69 a__6) (* (- 0 1) (* b__76 a__7)) (* (- 0 1) (* b__76 a__12 a__8)) (* (- 0 1) (* b__76 a__73 a__14 a__8))) 0) (>= (+ (* b__76 a__70 a__6) (* (- 0 1) (* b__76 a__75 a__14 a__8))) 0) (>= (+ (* b__76 a__71 a__6) (* (- 0 1) (* b__76 a__74 a__14 a__8))) 0) (>= (+ (* b__76 a__72 a__6) (* (- 0 1) (* b__76 a__13 a__8))) 0) (>= (+ (* b__76 a__5) (* b__76 a__49 a__6) (* b__76 a__15 a__50 a__6) (* (- 0 1) (* b__76 a__7)) (* (- 0 1) (* b__76 a__18 a__8))) 0) (>= (+ (* b__76 a__5) (* b__76 a__49 a__6) (* b__76 a__53 a__50 a__6) (* (- 0 1) (* b__76 a__7)) (* (- 0 1) (* b__76 a__16 a__8)) (* (- 0 1) (* b__76 a__35 a__17 a__8))) 0) (>= (+ (* b__76 a__54 a__50 a__6) (* (- 0 1) (* b__76 a__36 a__17 a__8))) 0) (>= (+ (* b__76 a__5) (* b__76 a__49 a__6) (* b__76 a__51 a__50 a__6) (* (- 0 1) (* b__76 a__7)) (* (- 0 1) (* b__76 a__19 a__8)) (* (- 0 1) (* b__76 a__49 a__20 a__8))) 0) (>= (+ (* b__76 a__52 a__50 a__6) (* (- 0 1) (* b__76 a__50 a__20 a__8))) 0) (>= (+ (* b__76 a__5) (* b__76 a__28 a__6) (* (- 0 1) (* b__76 a__7)) (* (- 0 1) (* b__76 a__21 a__8)) (* (- 0 1) (* b__76 a__35 a__22 a__8))) 0) (>= (+ (* b__76 a__29 a__6) (* (- 0 1) (* b__76 a__36 a__22 a__8))) 0) (>= (+ (* b__76 a__5) (* b__76 a__28 a__6) (* b__76 a__11 a__29 a__6) (* (- 0 1) (* b__76 a__7)) (* (- 0 1) (* b__76 a__18 a__8))) 0) (>= (+ (* b__76 a__5) (* b__76 a__28 a__6) (* b__76 a__12 a__29 a__6) (* (- 0 1) (* b__76 a__7)) (* (- 0 1) (* b__76 a__23 a__8)) (* (- 0 1) (* b__76 a__49 a__24 a__8))) 0) (>= (+ (* b__76 a__13 a__29 a__6) (* (- 0 1) (* b__76 a__50 a__24 a__8))) 0) (>= (+ (* b__76 a__14 a__29 a__6) (* (- 0 1) (* b__76 a__25 a__8))) 0) (>= (+ (* b__76 a__5) (* b__76 a__35 a__6) (* b__76 a__57 a__36 a__6) (* (- 0 1) (* b__76 a__7)) (* (- 0 1) (* b__76 a__18 a__8))) 0) (>= (+ (* b__76 a__5) (* b__76 a__35 a__6) (* b__76 a__12 a__36 a__6) (* (- 0 1) (* b__76 a__7)) (* (- 0 1) (* b__76 a__30 a__8)) (* (- 0 1) (* b__76 a__49 a__31 a__8))) 0) (>= (+ (* b__76 a__13 a__36 a__6) (* (- 0 1) (* b__76 a__50 a__31 a__8))) 0) (>= (+ (* b__76 a__14 a__36 a__6) (* (- 0 1) (* b__76 a__32 a__8))) 0) (>= (+ (* b__76 a__5) (* b__76 a__35 a__6) (* b__76 a__73 a__36 a__6) (* (- 0 1) (* b__76 a__7)) (* (- 0 1) (* b__76 a__37 a__8)) (* (- 0 1) (* b__76 a__49 a__38 a__8))) 0) (>= (+ (* b__76 a__74 a__36 a__6) (* (- 0 1) (* b__76 a__50 a__38 a__8))) 0) (>= (+ (* b__76 a__75 a__36 a__6) (* (- 0 1) (* b__76 a__39 a__8))) 0) (>= (+ (* b__76 a__5) (* b__76 a__53 a__6) (* b__76 a__57 a__54 a__6) (* (- 0 1) (* b__76 a__7)) (* (- 0 1) (* b__76 a__15 a__8))) 0) (>= (+ (* b__76 a__5) (* b__76 a__53 a__6) (* b__76 a__12 a__54 a__6) (* (- 0 1) (* b__76 a__7)) (* (- 0 1) (* b__76 a__42 a__8)) (* (- 0 1) (* b__76 a__35 a__43 a__8))) 0) (>= (+ (* b__76 a__13 a__54 a__6) (* (- 0 1) (* b__76 a__45 a__8))) 0) (>= (+ (* b__76 a__14 a__54 a__6) (* (- 0 1) (* b__76 a__36 a__43 a__8)) (* (- 0 1) (* b__76 a__44 a__8))) 0) (>= (+ (* b__76 a__5) (* b__76 a__73 a__6) (* b__76 a__15 a__74 a__6) (* (- 0 1) (* b__76 a__7)) (* (- 0 1) (* b__76 a__55 a__8)) (* (- 0 1) (* b__76 a__28 a__56 a__8))) 0) (>= (+ (* b__76 a__75 a__6) (* (- 0 1) (* b__76 a__29 a__56 a__8))) 0) (>= (+ (* b__76 a__5) (* b__76 a__73 a__6) (* b__76 a__51 a__74 a__6) (* b__76 a__12 a__75 a__6) (* (- 0 1) (* b__76 a__7)) (* (- 0 1) (* b__76 a__58 a__8)) (* (- 0 1) (* b__76 a__28 a__59 a__8))) 0) (>= (+ (* b__76 a__52 a__74 a__6) (* (- 0 1) (* b__76 a__61 a__8))) 0) (>= (+ (* b__76 a__13 a__75 a__6) (* (- 0 1) (* b__76 a__62 a__8))) 0) (>= (+ (* b__76 a__14 a__75 a__6) (* (- 0 1) (* b__76 a__29 a__59 a__8)) (* (- 0 1) (* b__76 a__60 a__8))) 0) (>= (+ (* b__76 a__5) (* b__76 a__12 a__6) (* (- 0 1) (* b__76 a__12)) (* (- 0 1) (* b__76 a__5 a__13))) 0) (>= (+ (* b__76 a__14 a__6) (* (- 0 1) (* b__76 a__14))) 0) (>= (+ (* b__76 a__5) (* b__76 a__16 a__6) (* (- 0 1) (* b__76 a__16)) (* (- 0 1) (* b__76 a__5 a__17))) 0) (>= (+ (* b__76 a__5) (* b__76 a__19 a__6) (* (- 0 1) (* b__76 a__19)) (* (- 0 1) (* b__76 a__5 a__20))) 0) (>= (+ (* b__76 a__5) (* b__76 a__21 a__6) (* (- 0 1) (* b__76 a__21)) (* (- 0 1) (* b__76 a__5 a__22))) 0) (>= (+ (* b__76 a__5) (* b__76 a__23 a__6) (* (- 0 1) (* b__76 a__23)) (* (- 0 1) (* b__76 a__5 a__24))) 0) (>= (+ (* b__76 a__25 a__6) (* (- 0 1) (* b__76 a__25))) 0) (>= (+ (* b__76 a__5) (* b__76 a__26 a__6) (* (- 0 1) (* b__76 a__26)) (* (- 0 1) (* b__76 a__5 a__27))) 0) (>= (+ (* b__76 a__5) (* b__76 a__30 a__6) (* (- 0 1) (* b__76 a__30)) (* (- 0 1) (* b__76 a__5 a__31))) 0) (>= (+ (* b__76 a__32 a__6) (* (- 0 1) (* b__76 a__32))) 0) (>= (+ (* b__76 a__5) (* b__76 a__33 a__6) (* (- 0 1) (* b__76 a__33)) (* (- 0 1) (* b__76 a__5 a__34))) 0) (>= (+ (* b__76 a__5) (* b__76 a__37 a__6) (* (- 0 1) (* b__76 a__37)) (* (- 0 1) (* b__76 a__5 a__38))) 0) (>= (+ (* b__76 a__39 a__6) (* (- 0 1) (* b__76 a__39))) 0) (>= (+ (* b__76 a__5) (* b__76 a__40 a__6) (* (- 0 1) (* b__76 a__40)) (* (- 0 1) (* b__76 a__5 a__41))) 0) (>= (+ (* b__76 a__5) (* b__76 a__42 a__6) (* (- 0 1) (* b__76 a__42)) (* (- 0 1) (* b__76 a__5 a__43))) 0) (>= (+ (* b__76 a__44 a__6) (* (- 0 1) (* b__76 a__44))) 0) (>= (+ (* b__76 a__45 a__6) (* (- 0 1) (* b__76 a__45))) 0) (>= (+ (* b__76 a__5) (* b__76 a__46 a__6) (* (- 0 1) (* b__76 a__46)) (* (- 0 1) (* b__76 a__5 a__47))) 0) (>= (+ (* b__76 a__48 a__6) (* (- 0 1) (* b__76 a__48))) 0) (>= (+ (* b__76 a__5) (* b__76 a__51 a__6) (* (- 0 1) (* b__76 a__51)) (* (- 0 1) (* b__76 a__5 a__52))) 0) (>= (+ (* b__76 a__5) (* b__76 a__53 a__6) (* (- 0 1) (* b__76 a__53)) (* (- 0 1) (* b__76 a__5 a__54))) 0) (>= (+ (* b__76 a__5) (* b__76 a__55 a__6) (* (- 0 1) (* b__76 a__55)) (* (- 0 1) (* b__76 a__5 a__56))) 0) (>= (+ (* b__76 a__5) (* b__76 a__58 a__6) (* (- 0 1) (* b__76 a__58)) (* (- 0 1) (* b__76 a__5 a__59))) 0) (>= (+ (* b__76 a__60 a__6) (* (- 0 1) (* b__76 a__60))) 0) (>= (+ (* b__76 a__61 a__6) (* (- 0 1) (* b__76 a__61))) 0) (>= (+ (* b__76 a__62 a__6) (* (- 0 1) (* b__76 a__62))) 0) (>= (+ (* b__76 a__5) (* b__76 a__63 a__6) (* (- 0 1) (* b__76 a__63)) (* (- 0 1) (* b__76 a__5 a__64))) 0) (>= (+ (* b__76 a__65 a__6) (* (- 0 1) (* b__76 a__65))) 0) (>= (+ (* b__76 a__66 a__6) (* (- 0 1) (* b__76 a__66))) 0) (>= (+ (* b__76 a__67 a__6) (* (- 0 1) (* b__76 a__67))) 0) (>= (+ (* b__76 a__5) (* b__76 a__68 a__6) (* (- 0 1) (* b__76 a__68)) (* (- 0 1) (* b__76 a__5 a__69))) 0) (>= (+ (* b__76 a__70 a__6) (* (- 0 1) (* b__76 a__70))) 0) (>= (+ (* b__76 a__71 a__6) (* (- 0 1) (* b__76 a__71))) 0) (>= (+ (* b__76 a__72 a__6) (* (- 0 1) (* b__76 a__72))) 0) (>= (+ (* b__76 a__5) (* b__76 a__73 a__6) (* (- 0 1) (* b__76 a__73)) (* (- 0 1) (* b__76 a__5 a__74))) 0) (>= (+ (* b__76 a__75 a__6) (* (- 0 1) (* b__76 a__75))) 0) (>= (+ (* b__76 a__5) (* b__76 a__73 a__6) (* (- 0 1) (* b__76 a__73)) (* (- 0 1) (* b__76 a__5 a__75))) 0) (>= (+ (* b__76 a__74 a__6) (* (- 0 1) (* b__76 a__74))) 0) (>= (+ (* b__76 a__9) (* b__76 a__11 a__10) (* (- 0 1) (* b__76 a__3)) (* (- 0 1) (* b__76 a__11 a__4))) 0) (>= (+ (* b__76 a__9) (* b__76 a__12 a__10) (* (- 0 1) (* b__76 a__12)) (* (- 0 1) (* b__76 a__9 a__13)) (* (- 0 1) (* b__76 a__9 a__14))) 0) (>= (+ (* b__76 a__9) (* b__76 a__15 a__10) (* (- 0 1) (* b__76 a__3)) (* (- 0 1) (* b__76 a__15 a__4))) 0) (>= (+ (* b__76 a__9) (* b__76 a__16 a__10) (* (- 0 1) (* b__76 a__16)) (* (- 0 1) (* b__76 a__9 a__17))) 0) (>= (+ (* b__76 a__9) (* b__76 a__18 a__10) (* (- 0 1) (* b__76 a__3)) (* (- 0 1) (* b__76 a__18 a__4))) 0) (>= (+ (* b__76 a__9) (* b__76 a__19 a__10) (* (- 0 1) (* b__76 a__19)) (* (- 0 1) (* b__76 a__9 a__20))) 0) (>= (+ (* b__76 a__9) (* b__76 a__21 a__10) (* (- 0 1) (* b__76 a__21)) (* (- 0 1) (* b__76 a__9 a__22))) 0) (>= (+ (* b__76 a__9) (* b__76 a__23 a__10) (* (- 0 1) (* b__76 a__23)) (* (- 0 1) (* b__76 a__9 a__24)) (* (- 0 1) (* b__76 a__9 a__25))) 0) (>= (+ (* b__76 a__9) (* b__76 a__26 a__10) (* (- 0 1) (* b__76 a__26)) (* (- 0 1) (* b__76 a__9 a__27))) 0) (>= (+ (* b__76 a__9) (* b__76 a__28 a__10) (* (- 0 1) (* b__76 a__28)) (* (- 0 1) (* b__76 a__9 a__29))) 0) (>= (+ (* b__76 a__9) (* b__76 a__30 a__10) (* (- 0 1) (* b__76 a__30)) (* (- 0 1) (* b__76 a__9 a__31)) (* (- 0 1) (* b__76 a__9 a__32))) 0) (>= (+ (* b__76 a__9) (* b__76 a__33 a__10) (* (- 0 1) (* b__76 a__33)) (* (- 0 1) (* b__76 a__9 a__34))) 0) (>= (+ (* b__76 a__9) (* b__76 a__35 a__10) (* (- 0 1) (* b__76 a__35)) (* (- 0 1) (* b__76 a__9 a__36))) 0) (>= (+ (* b__76 a__9) (* b__76 a__37 a__10) (* (- 0 1) (* b__76 a__37)) (* (- 0 1) (* b__76 a__9 a__38)) (* (- 0 1) (* b__76 a__9 a__39))) 0) (>= (+ (* b__76 a__9) (* b__76 a__40 a__10) (* (- 0 1) (* b__76 a__40)) (* (- 0 1) (* b__76 a__9 a__41))) 0) (>= (+ (* b__76 a__9) (* b__76 a__42 a__10) (* (- 0 1) (* b__76 a__42)) (* (- 0 1) (* b__76 a__9 a__43)) (* (- 0 1) (* b__76 a__9 a__44)) (* (- 0 1) (* b__76 a__9 a__45))) 0) (>= (+ (* b__76 a__9) (* b__76 a__46 a__10) (* (- 0 1) (* b__76 a__46)) (* (- 0 1) (* b__76 a__9 a__47)) (* (- 0 1) (* b__76 a__9 a__48))) 0) (>= (+ (* b__76 a__9) (* b__76 a__49 a__10) (* (- 0 1) (* b__76 a__49)) (* (- 0 1) (* b__76 a__9 a__50))) 0) (>= (+ (* b__76 a__9) (* b__76 a__51 a__10) (* (- 0 1) (* b__76 a__51)) (* (- 0 1) (* b__76 a__9 a__52))) 0) (>= (+ (* b__76 a__9) (* b__76 a__53 a__10) (* (- 0 1) (* b__76 a__53)) (* (- 0 1) (* b__76 a__9 a__54))) 0) (>= (+ (* b__76 a__9) (* b__76 a__55 a__10) (* (- 0 1) (* b__76 a__55)) (* (- 0 1) (* b__76 a__9 a__56))) 0) (>= (+ (* b__76 a__9) (* b__76 a__57 a__10) (* (- 0 1) (* b__76 a__3)) (* (- 0 1) (* b__76 a__57 a__4))) 0) (>= (+ (* b__76 a__9) (* b__76 a__58 a__10) (* (- 0 1) (* b__76 a__58)) (* (- 0 1) (* b__76 a__9 a__59)) (* (- 0 1) (* b__76 a__9 a__60)) (* (- 0 1) (* b__76 a__9 a__61)) (* (- 0 1) (* b__76 a__9 a__62))) 0) (>= (+ (* b__76 a__9) (* b__76 a__63 a__10) (* (- 0 1) (* b__76 a__63)) (* (- 0 1) (* b__76 a__9 a__64)) (* (- 0 1) (* b__76 a__9 a__65)) (* (- 0 1) (* b__76 a__9 a__66)) (* (- 0 1) (* b__76 a__9 a__67))) 0) (>= (+ (* b__76 a__9) (* b__76 a__68 a__10) (* (- 0 1) (* b__76 a__68)) (* (- 0 1) (* b__76 a__9 a__69)) (* (- 0 1) (* b__76 a__9 a__70)) (* (- 0 1) (* b__76 a__9 a__71)) (* (- 0 1) (* b__76 a__9 a__72))) 0) (>= (+ (* b__76 a__9) (* b__76 a__73 a__10) (* (- 0 1) (* b__76 a__73)) (* (- 0 1) (* b__76 a__9 a__74)) (* (- 0 1) (* b__76 a__9 a__75))) 0) (>= (+ (* b__76 a__16) (* b__76 a__7 a__17) (* (- 0 1) (* b__76 a__7)) (* (- 0 1) (* b__76 a__16 a__8))) 0) (>= (+ (* b__76 a__16) (* b__76 a__3 a__17) (* (- 0 1) (* b__76 a__3)) (* (- 0 1) (* b__76 a__16 a__4))) 0) (>= (+ (* b__76 a__12) (* b__76 a__7 a__13) (* (- 0 1) (* b__76 a__7)) (* (- 0 1) (* b__76 a__12 a__8))) 0) (>= (+ (* b__76 a__14) (* (- 0 1) (* b__76 a__14 a__8))) 0) (>= (+ (* b__76 a__12) (* b__76 a__3 a__13) (* b__76 a__3 a__14) (* (- 0 1) (* b__76 a__3)) (* (- 0 1) (* b__76 a__12 a__4))) 0) (>= (+ (* b__76 a__19) (* b__76 a__7 a__20) (* (- 0 1) (* b__76 a__7)) (* (- 0 1) (* b__76 a__19 a__8))) 0) (>= (+ (* b__76 a__19) (* b__76 a__3 a__20) (* (- 0 1) (* b__76 a__3)) (* (- 0 1) (* b__76 a__19 a__4))) 0) (>= (+ (* b__76 a__21) (* b__76 a__7 a__22) (* (- 0 1) (* b__76 a__7)) (* (- 0 1) (* b__76 a__21 a__8))) 0) (>= (+ (* b__76 a__21) (* b__76 a__3 a__22) (* (- 0 1) (* b__76 a__3)) (* (- 0 1) (* b__76 a__21 a__4))) 0) (>= (+ (* b__76 a__23) (* b__76 a__7 a__24) (* (- 0 1) (* b__76 a__7)) (* (- 0 1) (* b__76 a__23 a__8))) 0) (>= (+ (* b__76 a__25) (* (- 0 1) (* b__76 a__25 a__8))) 0) (>= (+ (* b__76 a__23) (* b__76 a__3 a__24) (* b__76 a__3 a__25) (* (- 0 1) (* b__76 a__3)) (* (- 0 1) (* b__76 a__23 a__4))) 0) (>= (+ (* b__76 a__26) (* b__76 a__7 a__27) (* (- 0 1) (* b__76 a__7)) (* (- 0 1) (* b__76 a__26 a__8))) 0) (>= (+ (* b__76 a__26) (* b__76 a__3 a__27) (* (- 0 1) (* b__76 a__3)) (* (- 0 1) (* b__76 a__26 a__4))) 0) (>= (+ (* b__76 a__30) (* b__76 a__7 a__31) (* (- 0 1) (* b__76 a__7)) (* (- 0 1) (* b__76 a__30 a__8))) 0) (>= (+ (* b__76 a__32) (* (- 0 1) (* b__76 a__32 a__8))) 0) (>= (+ (* b__76 a__30) (* b__76 a__3 a__31) (* b__76 a__3 a__32) (* (- 0 1) (* b__76 a__3)) (* (- 0 1) (* b__76 a__30 a__4))) 0) (>= (+ (* b__76 a__33) (* b__76 a__7 a__34) (* (- 0 1) (* b__76 a__7)) (* (- 0 1) (* b__76 a__33 a__8))) 0) (>= (+ (* b__76 a__33) (* b__76 a__3 a__34) (* (- 0 1) (* b__76 a__3)) (* (- 0 1) (* b__76 a__33 a__4))) 0) (>= (+ (* b__76 a__37) (* b__76 a__7 a__38) (* (- 0 1) (* b__76 a__7)) (* (- 0 1) (* b__76 a__37 a__8))) 0) (>= (+ (* b__76 a__39) (* (- 0 1) (* b__76 a__39 a__8))) 0) (>= (+ (* b__76 a__37) (* b__76 a__3 a__38) (* b__76 a__3 a__39) (* (- 0 1) (* b__76 a__3)) (* (- 0 1) (* b__76 a__37 a__4))) 0) (>= (+ (* b__76 a__40) (* b__76 a__7 a__41) (* (- 0 1) (* b__76 a__7)) (* (- 0 1) (* b__76 a__40 a__8))) 0) (>= (+ (* b__76 a__40) (* b__76 a__3 a__41) (* (- 0 1) (* b__76 a__3)) (* (- 0 1) (* b__76 a__40 a__4))) 0) (>= (+ (* b__76 a__42) (* b__76 a__7 a__43) (* (- 0 1) (* b__76 a__7)) (* (- 0 1) (* b__76 a__42 a__8))) 0) (>= (+ (* b__76 a__44) (* (- 0 1) (* b__76 a__44 a__8))) 0) (>= (+ (* b__76 a__45) (* (- 0 1) (* b__76 a__45 a__8))) 0) (>= (+ (* b__76 a__42) (* b__76 a__3 a__43) (* b__76 a__3 a__44) (* b__76 a__3 a__45) (* (- 0 1) (* b__76 a__3)) (* (- 0 1) (* b__76 a__42 a__4))) 0) (>= (+ (* b__76 a__46) (* b__76 a__7 a__47) (* (- 0 1) (* b__76 a__7)) (* (- 0 1) (* b__76 a__46 a__8))) 0) (>= (+ (* b__76 a__48) (* (- 0 1) (* b__76 a__48 a__8))) 0) (>= (+ (* b__76 a__46) (* b__76 a__3 a__47) (* b__76 a__3 a__48) (* (- 0 1) (* b__76 a__3)) (* (- 0 1) (* b__76 a__46 a__4))) 0) (>= (+ (* b__76 a__51) (* b__76 a__7 a__52) (* (- 0 1) (* b__76 a__7)) (* (- 0 1) (* b__76 a__51 a__8))) 0) (>= (+ (* b__76 a__51) (* b__76 a__3 a__52) (* (- 0 1) (* b__76 a__3)) (* (- 0 1) (* b__76 a__51 a__4))) 0) (>= (+ (* b__76 a__53) (* b__76 a__7 a__54) (* (- 0 1) (* b__76 a__7)) (* (- 0 1) (* b__76 a__53 a__8))) 0) (>= (+ (* b__76 a__53) (* b__76 a__3 a__54) (* (- 0 1) (* b__76 a__3)) (* (- 0 1) (* b__76 a__53 a__4))) 0) (>= (+ (* b__76 a__55) (* b__76 a__7 a__56) (* (- 0 1) (* b__76 a__7)) (* (- 0 1) (* b__76 a__55 a__8))) 0) (>= (+ (* b__76 a__55) (* b__76 a__3 a__56) (* (- 0 1) (* b__76 a__3)) (* (- 0 1) (* b__76 a__55 a__4))) 0) (>= (+ (* b__76 a__58) (* b__76 a__7 a__59) (* (- 0 1) (* b__76 a__7)) (* (- 0 1) (* b__76 a__58 a__8))) 0) (>= (+ (* b__76 a__60) (* (- 0 1) (* b__76 a__60 a__8))) 0) (>= (+ (* b__76 a__61) (* (- 0 1) (* b__76 a__61 a__8))) 0) (>= (+ (* b__76 a__62) (* (- 0 1) (* b__76 a__62 a__8))) 0) (>= (+ (* b__76 a__58) (* b__76 a__3 a__59) (* b__76 a__3 a__60) (* b__76 a__3 a__61) (* b__76 a__3 a__62) (* (- 0 1) (* b__76 a__3)) (* (- 0 1) (* b__76 a__58 a__4))) 0) (>= (+ (* b__76 a__63) (* b__76 a__7 a__64) (* (- 0 1) (* b__76 a__7)) (* (- 0 1) (* b__76 a__63 a__8))) 0) (>= (+ (* b__76 a__65) (* (- 0 1) (* b__76 a__65 a__8))) 0) (>= (+ (* b__76 a__66) (* (- 0 1) (* b__76 a__66 a__8))) 0) (>= (+ (* b__76 a__67) (* (- 0 1) (* b__76 a__67 a__8))) 0) (>= (+ (* b__76 a__63) (* b__76 a__3 a__64) (* b__76 a__3 a__65) (* b__76 a__3 a__66) (* b__76 a__3 a__67) (* (- 0 1) (* b__76 a__3)) (* (- 0 1) (* b__76 a__63 a__4))) 0) (>= (+ (* b__76 a__68) (* b__76 a__7 a__69) (* (- 0 1) (* b__76 a__7)) (* (- 0 1) (* b__76 a__68 a__8))) 0) (>= (+ (* b__76 a__70) (* (- 0 1) (* b__76 a__70 a__8))) 0) (>= (+ (* b__76 a__71) (* (- 0 1) (* b__76 a__71 a__8))) 0) (>= (+ (* b__76 a__72) (* (- 0 1) (* b__76 a__72 a__8))) 0) (>= (+ (* b__76 a__68) (* b__76 a__3 a__69) (* b__76 a__3 a__70) (* b__76 a__3 a__71) (* b__76 a__3 a__72) (* (- 0 1) (* b__76 a__3)) (* (- 0 1) (* b__76 a__68 a__4))) 0) (>= (+ (* b__76 a__73) (* b__76 a__7 a__74) (* (- 0 1) (* b__76 a__7)) (* (- 0 1) (* b__76 a__73 a__8))) 0) (>= (+ (* b__76 a__75) (* (- 0 1) (* b__76 a__75 a__8))) 0) (>= (+ (* b__76 a__73) (* b__76 a__7 a__75) (* (- 0 1) (* b__76 a__7)) (* (- 0 1) (* b__76 a__73 a__8))) 0) (>= (+ (* b__76 a__74) (* (- 0 1) (* b__76 a__74 a__8))) 0) (>= (+ (* b__76 a__73) (* b__76 a__3 a__74) (* b__76 a__3 a__75) (* (- 0 1) (* b__76 a__3)) (* (- 0 1) (* b__76 a__73 a__4))) 0) (>= (+ (* b__76 a__28) (* b__76 a__3 a__29) (* (- 0 1) (* b__76 a__3)) (* (- 0 1) (* b__76 a__28 a__4))) 0) (>= (+ (* b__76 a__35) (* b__76 a__3 a__36) (* (- 0 1) (* b__76 a__3)) (* (- 0 1) (* b__76 a__35 a__4))) 0) (>= (+ (* b__76 a__49) (* b__76 a__3 a__50) (* (- 0 1) (* b__76 a__3)) (* (- 0 1) (* b__76 a__49 a__4))) 0) (>= (+ (* a__3 a__2) (* (- 0 1) (* a__5 a__2))) 0) (>= (+ (* a__7 a__2) (* (- 0 1) (* a__9 a__2))) 0) (not (and (= (+ (* a__3 a__2) (* (- 0 1) (* a__5 a__2))) 0) (= (+ (* a__7 a__2) (* (- 0 1) (* a__9 a__2))) 0))) (>= b__76 0) (>= 1 b__76) (>= a__2 0) (>= a__4 0) (>= a__6 0) (>= a__8 0) (>= a__10 0) (>= a__5 0) (>= a__11 0) (>= a__7 0) (>= a__12 0) (>= a__15 0) (>= a__13 0) (>= a__14 0) (>= a__16 0) (>= a__18 0) (>= a__17 0) (>= a__19 0) (>= a__20 0) (>= a__21 0) (>= a__22 0) (>= a__23 0) (>= a__24 0) (>= a__26 0) (>= a__28 0) (>= a__27 0) (>= a__25 0) (>= a__29 0) (>= a__30 0) (>= a__31 0) (>= a__33 0) (>= a__35 0) (>= a__34 0) (>= a__32 0) (>= a__36 0) (>= a__37 0) (>= a__38 0) (>= a__40 0) (>= a__41 0) (>= a__39 0) (>= a__42 0) (>= a__43 0) (>= a__46 0) (>= a__49 0) (>= a__47 0) (>= a__44 0) (>= a__48 0) (>= a__45 0) (>= a__50 0) (>= a__51 0) (>= a__53 0) (>= a__52 0) (>= a__54 0) (>= a__55 0) (>= a__56 0) (>= a__57 0) (>= a__58 0) (>= a__59 0) (>= a__63 0) (>= a__64 0) (>= a__60 0) (>= a__65 0) (>= a__61 0) (>= a__66 0) (>= a__62 0) (>= a__67 0) (>= a__68 0) (>= a__69 0) (>= a__70 0) (>= a__71 0) (>= a__72 0) (>= a__73 0) (>= a__75 0) (>= a__74 0) (>= a__9 0) (>= a__3 0)))
(check-sat)
;;(get-assignment)
;;(get-model)
(exit)
